22:35:44 INFO: starting simulation...
22:35:44 INFO: num_compartments: 3
22:35:44 INFO: num_products: 3
22:35:44 INFO: num_destinations: 2
22:35:44 INFO: capacity_compartments: [709.76270079 743.03787327 720.55267521]
22:35:44 INFO: size_package: [20.44883183 19.23654799 21.45894113]
22:35:44 INFO: demand: [array([14., 22., 23.]), array([ 7., 15., 10.])]
22:35:44 INFO: simulation end
22:35:44 INFO: getting data from instance...
22:35:44 INFO: SimpleTruckLoadingProblem
22:35:44 INFO: 
22:35:44 INFO: --------------------------------------------
22:35:44 INFO: Warning: your license will expire in 2 days
22:35:44 INFO: --------------------------------------------
22:35:44 INFO: 
22:35:44 INFO: Academic license - for non-commercial use only - expires 2021-06-08
22:35:44 INFO: Using license file C:\Users\54498\gurobi.lic
22:35:44 INFO: Changed value of parameter MIPgap to 0.001
22:35:44 INFO:    Prev: 0.0001  Min: 0.0  Max: inf  Default: 0.0001
22:35:44 INFO: Changed value of parameter TimeLimit to 10.0
22:35:44 INFO:    Prev: inf  Min: 0.0  Max: inf  Default: inf
22:35:44 INFO: Parameter OutputFlag unchanged
22:35:44 INFO:    Value: 1  Min: 0  Max: 1  Default: 1
22:35:44 INFO: Changed value of parameter LogFile to ./logs/gurobi.log
22:35:44 INFO:    Prev:   Default: 
22:35:44 INFO: Gurobi Optimizer version 9.1.2 build v9.1.2rc0 (win64)
22:35:44 INFO: Thread count: 4 physical cores, 8 logical processors, using up to 8 threads
22:35:44 INFO: Optimize a model with 15 rows, 19 columns and 66 nonzeros
22:35:44 INFO: Model fingerprint: 0x40d54c6f
22:35:44 INFO: Variable types: 1 continuous, 18 integer (0 binary)
22:35:44 INFO: Coefficient statistics:
22:35:44 INFO:   Matrix range     [1e+00, 2e+01]
22:35:44 INFO:   Objective range  [1e+00, 1e+00]
22:35:44 INFO:   Bounds range     [0e+00, 0e+00]
22:35:44 INFO:   RHS range        [7e+02, 7e+02]
22:35:44 INFO: Found heuristic solution: objective -0.0000000
22:35:44 INFO: Presolve removed 6 rows and 0 columns
22:35:44 INFO: Presolve time: 0.00s
22:35:44 INFO: Presolved: 9 rows, 19 columns, 42 nonzeros
22:35:44 INFO: Variable types: 1 continuous, 18 integer (0 binary)
22:35:44 INFO: 
22:35:44 INFO: Root relaxation: objective 1.175216e+00, 17 iterations, 0.00 seconds
22:35:44 INFO: 
22:35:44 INFO:     Nodes    |    Current Node    |     Objective Bounds      |     Work
22:35:44 INFO:  Expl Unexpl |  Obj  Depth IntInf | Incumbent    BestBd   Gap | It/Node Time
22:35:44 INFO: 
22:35:44 INFO:      0     0    1.17522    0    8   -0.00000    1.17522      -     -    0s
22:35:44 INFO: H    0     0                       0.9285714    1.17522  26.6%     -    0s
22:35:44 INFO: H    0     0                       1.1304348    1.17522  3.96%     -    0s
22:35:44 INFO: H    0     0                       1.1363636    1.17522  3.42%     -    0s
22:35:44 INFO:      0     0    1.16434    0    9    1.13636    1.16434  2.46%     -    0s
22:35:44 INFO:      0     0    1.16434    0   10    1.13636    1.16434  2.46%     -    0s
22:35:44 INFO:      0     0    1.15876    0    8    1.13636    1.15876  1.97%     -    0s
22:35:44 INFO:      0     0    1.15876    0    8    1.13636    1.15876  1.97%     -    0s
22:35:44 INFO:      0     0    1.15631    0   10    1.13636    1.15631  1.76%     -    0s
22:35:44 INFO:      0     0    1.15631    0   10    1.13636    1.15631  1.76%     -    0s
22:35:44 INFO:      0     0    1.15522    0    8    1.13636    1.15522  1.66%     -    0s
22:35:44 INFO:      0     0    1.15373    0    7    1.13636    1.15373  1.53%     -    0s
22:35:44 INFO:      0     0    1.15317    0    8    1.13636    1.15317  1.48%     -    0s
22:35:44 INFO:      0     2    1.15317    0    8    1.13636    1.15317  1.48%     -    0s
22:35:44 INFO: 
22:35:44 INFO: Cutting planes:
22:35:44 INFO:   Gomory: 3
22:35:44 INFO:   MIR: 9
22:35:44 INFO:   StrongCG: 3
22:35:44 INFO: 
22:35:44 INFO: Explored 2306 nodes (4523 simplex iterations) in 0.18 seconds
22:35:44 INFO: Thread count was 8 (of 8 available processors)
22:35:44 INFO: 
22:35:44 INFO: Solution count 4: 1.13636 1.13043 0.928571 -0 
22:35:44 INFO: 
22:35:44 INFO: Optimal solution found (tolerance 1.00e-03)
22:35:44 INFO: Best objective 1.136363636364e+00, best bound 1.136363636364e+00, gap 0.0000%
